(set-logic QF_S)
(declare-fun var0 () String)
(assert (str.in.re var0 (re.++ (re.* (re.+ (str.to.re "0"))) (re.++ (re.+ (re.* (str.to.re "111"))) (re.++ (re.+ (re.+ (str.to.re "222"))) (re.++ (re.union (re.+ (str.to.re "333")) (re.+ (str.to.re "4"))) (re.++ (re.+ (re.union (str.to.re "5") (str.to.re "666"))) (re.++ (re.+ (re.+ (str.to.re "7"))) (re.++ (re.* (re.+ (str.to.re "88"))) (re.++ (re.union (re.union (str.to.re "9") (str.to.re "aa")) (re.union (str.to.re "bbb") (str.to.re "cc"))) (re.++ (re.+ (re.union (str.to.re "dd") (str.to.re "eee"))) (re.+ (re.* (str.to.re "f"))))))))))))))
(assert (<= 101 (str.len var0)))
(check-sat)